language Essence 1.3

letting hosts be {1, 2, 3, 4, 5, 6, 7, 8, 9, 10, 11}
letting sched be
        {function(1 --> 1, 2 --> 2, 3 --> 3, 4 --> 4, 5 --> 5, 6 --> 6, 7 --> 7, 8 --> 8, 9 --> 9, 10 --> 10, 11 --> 11,
                  12 --> 1),
         function(1 --> 1, 2 --> 2, 3 --> 3, 4 --> 4, 5 --> 5, 6 --> 6, 7 --> 7, 8 --> 8, 9 --> 9, 10 --> 10, 11 --> 11,
                  12 --> 2),
         function(1 --> 1, 2 --> 2, 3 --> 3, 4 --> 4, 5 --> 5, 6 --> 6, 7 --> 7, 8 --> 8, 9 --> 9, 10 --> 10, 11 --> 11,
                  12 --> 3),
         function(1 --> 1, 2 --> 2, 3 --> 3, 4 --> 4, 5 --> 5, 6 --> 6, 7 --> 7, 8 --> 8, 9 --> 9, 10 --> 10, 11 --> 11,
                  12 --> 4),
         function(1 --> 1, 2 --> 2, 3 --> 3, 4 --> 4, 5 --> 5, 6 --> 6, 7 --> 7, 8 --> 8, 9 --> 9, 10 --> 10, 11 --> 11,
                  12 --> 5)}
$ Visualisation for sched
$  1  2  3  4  5  6  7  8  9 10 11  1
$  1  2  3  4  5  6  7  8  9 10 11  2
$  1  2  3  4  5  6  7  8  9 10 11  3
$  1  2  3  4  5  6  7  8  9 10 11  4
$  1  2  3  4  5  6  7  8  9 10 11  5

